RT is False
Default write of storage_offers_DA.csv just to have a file (but constraint should be inactive)
Reading model...
...model read.
creating competitive generators file...
...competitive generators recorded.
Loading data...
.. day-ahead data with real-time VRE data read.
Compiling instance...
...instance created.
Creating Offer Mitigation (model will solve as dispatch if TRUE)...
NOTE: storage offers will not be mitigated
...storage offer mitigation file created
Converting model to MPEC...
...converted
NOTE: initial MIP solve with only storage competitive to get feasible solution
Solving...

Welcome to IBM(R) ILOG(R) CPLEX(R) Interactive Optimizer 12.9.0.0
  with Simplex, Mixed Integer & Barrier Optimizers
5725-A06 5725-A29 5724-Y48 5724-Y49 5724-Y54 5724-Y55 5655-Y21
Copyright IBM Corp. 1988, 2019.  All Rights Reserved.

Type 'help' for a list of available commands.
Type 'help' followed by a command name for more
information on commands.

CPLEX> Logfile 'cplex.log' closed.
Logfile 'C:\Users\llavin\Desktop\test919\logs\tmp6he5uamn.cplex.log' open.
CPLEX> New value for parallel optimization mode: -1
CPLEX> New value for mixed integer optimality gap tolerance: 0.01
CPLEX> New value for integrality tolerance: 1e-09
CPLEX> New value for feasibility tolerance: 0.1
CPLEX> New value for deterministic time limit in ticks: 100000
CPLEX> Problem 'C:\Users\llavin\Desktop\test919\logs\tmp2ota63lg.pyomo.lp' read.
Read time = 0.23 sec. (13.86 ticks)
CPLEX> Problem name         : C:\Users\llavin\Desktop\test919\logs\tmp2ota63lg.pyomo.lp
Objective sense      : Maximize
Variables            :   53321  [Nneg: 1,  Box: 21806,  Free: 4416,
                                 Binary: 27098]
Objective nonzeros   :    8973
Linear constraints   :  122164  [Less: 40983,  Greater: 58612,  Equal: 22569]
  Nonzeros           :  288498
  RHS nonzeros       :   66975

Variables            : Min LB: -5000.000        Max UB: 1000000.       
Objective nonzeros   : Min   : 0.01666667       Max   : 764.2667       
Linear constraints   :
  Nonzeros           : Min   : 0.01666667       Max   : 1000000.       
  RHS nonzeros       : Min   : 0.01666667       Max   : 1000000.       
CPLEX> CPXPARAM_Parallel                                -1
CPXPARAM_Simplex_Tolerances_Feasibility          0.10000000000000001
CPXPARAM_DetTimeLimit                            100000
CPXPARAM_MIP_Tolerances_MIPGap                   0.01
CPXPARAM_MIP_Tolerances_Integrality              1.0000000000000001e-09
Tried aggregator 3 times.
MIP Presolve eliminated 88140 rows and 18993 columns.
MIP Presolve added 3361 rows and 0 columns.
MIP Presolve modified 23502 coefficients.
Aggregator did 12849 substitutions.
Reduced MIP has 24536 rows, 20920 columns, and 68761 nonzeros.
Reduced MIP has 8272 binaries, 0 generals, 0 SOSs, and 0 indicators.
Presolve time = 0.30 sec. (173.19 ticks)
Probing fixed 429 vars, tightened 2920 bounds.
Probing time = 1.23 sec. (897.44 ticks)
Tried aggregator 2 times.
MIP Presolve eliminated 954 rows and 862 columns.
MIP Presolve modified 2183 coefficients.
Aggregator did 59 substitutions.
Reduced MIP has 23523 rows, 19999 columns, and 65814 nonzeros.
Reduced MIP has 7841 binaries, 0 generals, 0 SOSs, and 0 indicators.
Presolve time = 0.11 sec. (66.05 ticks)
Probing time = 0.05 sec. (15.76 ticks)
Clique table members: 6201.
MIP emphasis: balance optimality and feasibility.
MIP search method: dynamic search.
Parallel mode: opportunistic, using up to 32 threads.
Root relaxation solution time = 0.44 sec. (523.90 ticks)

        Nodes                                         Cuts/
   Node  Left     Objective  IInf  Best Integer    Best Bound    ItCnt     Gap

      0     0     3798.4879   719                   3798.4879     6713         
      0     0     3798.4879   563                  Cuts: 1016     7008         
      0     0     3798.4879   443                   Cuts: 624     7163         
      0     0     3798.4879   390                   Cuts: 510     7241         
      0     0     3792.9612   380                   Cuts: 368     7280         
      0     0     3792.9612   372                   Cuts: 167     7297         
      0     0     3792.9612   365                   Cuts: 129     7309         
      0     0     3792.9612   357                   Cuts: 125     7321         
      0     0     3792.9612   356                    Cuts: 92     7324         
      0     0     3792.9612   356                    Cuts: 86     7324         
      0    21    infeasible                       Flowcuts: 4     7420         
Elapsed time = 10.59 sec. (6401.95 ticks, tree = 0.02 MB, solutions = 0)
    520   113     3665.8237   340                   3767.0795     7906         
   1347   338     1468.1163   323                   3767.0795     8273         
   2604  1288     3665.8237   309                   3767.0795     9579         
   4126  1949     3740.6245   293                   3767.0795    10115         
   5151  2182     3696.5678   272                   3767.0795    10201         
   5833  5225  -238937.7095   121                   3767.0795    22917         
   6369  5767   -12119.7009   277                   3767.0795    49584         
   7030  5492  -463721.1337   167                   3767.0795    35293         
   7685  5854   -22300.3022   258                   3767.0795    54662         
  10418  8496   -10927.4746   209                   3767.0795    86328         
Elapsed time = 27.59 sec. (9505.14 ticks, tree = 68.69 MB, solutions = 0)
* 13801 10678      integral     0  -544028.9459     3767.0795    95059  100.69%
* 13807 10117      integral     0     3767.0792     3767.0795    93638    0.00%
  13816 10729   -10675.9923   183     3767.0792     3767.0795    95147    0.00%

Clique cuts applied:  44
Cover cuts applied:  1
Implied bound cuts applied:  33
Flow cuts applied:  830
Mixed integer rounding cuts applied:  15
Gomory fractional cuts applied:  25

Root node processing (before b&c):
  Real time             =    9.02 sec. (6381.65 ticks)
Parallel b&c, 32 threads:
  Real time             =   21.53 sec. (4202.78 ticks)
  Sync time (average)   =    0.72 sec.
  Wait time (average)   =    0.00 sec.
                          ------------
Total (root+branch&cut) =   30.55 sec. (10584.43 ticks)

Solution pool: 3 solutions saved.

MIP - Integer optimal, tolerance (0.01/1e-06):  Objective =  3.7670791852e+03
Current MIP best bound =  3.7670794764e+03 (gap = 0.000291151, 0.00%)
Solution time =   30.56 sec.  Iterations = 98525  Nodes = 13850 (1)
Deterministic time = 10584.58 ticks  (346.33 ticks/sec)

CPLEX> Incumbent solution written to file 'C:\Users\llavin\Desktop\test919\logs\tmp5i8y8xzv.cplex.sol'.
CPLEX> NOTE: no warmstart specified for MIP iteration, default behavior is true
NOTE: resolving with all competitive generators using storage-only solution to warmstart
Solving...

Welcome to IBM(R) ILOG(R) CPLEX(R) Interactive Optimizer 12.9.0.0
  with Simplex, Mixed Integer & Barrier Optimizers
5725-A06 5725-A29 5724-Y48 5724-Y49 5724-Y54 5724-Y55 5655-Y21
Copyright IBM Corp. 1988, 2019.  All Rights Reserved.

Type 'help' for a list of available commands.
Type 'help' followed by a command name for more
information on commands.

CPLEX> Logfile 'cplex.log' closed.
Logfile 'C:\Users\llavin\Desktop\test919\logs\tmps4gxrol3.cplex.log' open.
CPLEX> New value for parallel optimization mode: -1
CPLEX> New value for mixed integer optimality gap tolerance: 0.01
CPLEX> New value for integrality tolerance: 1e-09
CPLEX> New value for feasibility tolerance: 0.1
CPLEX> New value for deterministic time limit in ticks: 100000
CPLEX> Problem 'C:\Users\llavin\Desktop\test919\logs\tmp9codzcr_.pyomo.lp' read.
Read time = 0.25 sec. (13.88 ticks)
CPLEX> MIP start file 'C:\Users\llavin\Desktop\test919\logs\tmpggcf2mrx.cplex.mst' read.
CPLEX> Problem name         : C:\Users\llavin\Desktop\test919\logs\tmp9codzcr_.pyomo.lp
Objective sense      : Maximize
Variables            :   54041  [Nneg: 1,  Box: 22526,  Free: 4416,
                                 Binary: 27098]
Objective nonzeros   :    9693
Linear constraints   :  122164  [Less: 40983,  Greater: 58612,  Equal: 22569]
  Nonzeros           :  288498
  RHS nonzeros       :   66975

Variables            : Min LB: -5000.000        Max UB: 1000000.       
Objective nonzeros   : Min   : 0.01666667       Max   : 764.2667       
Linear constraints   :
  Nonzeros           : Min   : 0.01666667       Max   : 1000000.       
  RHS nonzeros       : Min   : 0.01666667       Max   : 1000000.       
CPLEX> CPXPARAM_Parallel                                -1
CPXPARAM_Simplex_Tolerances_Feasibility          0.10000000000000001
CPXPARAM_DetTimeLimit                            100000
CPXPARAM_MIP_Tolerances_MIPGap                   0.01
CPXPARAM_MIP_Tolerances_Integrality              1.0000000000000001e-09
Warning:  No solution found from 1 MIP starts.
Retaining values of one MIP start for possible repair.
Tried aggregator 3 times.
MIP Presolve eliminated 88140 rows and 19713 columns.
MIP Presolve added 3361 rows and 0 columns.
MIP Presolve modified 23502 coefficients.
Aggregator did 12849 substitutions.
Reduced MIP has 24536 rows, 20920 columns, and 68761 nonzeros.
Reduced MIP has 8272 binaries, 0 generals, 0 SOSs, and 0 indicators.
Presolve time = 0.28 sec. (173.44 ticks)
Probing fixed 429 vars, tightened 2920 bounds.
Probing time = 1.23 sec. (897.44 ticks)
Tried aggregator 2 times.
MIP Presolve eliminated 954 rows and 862 columns.
MIP Presolve modified 2183 coefficients.
Aggregator did 59 substitutions.
Reduced MIP has 23523 rows, 19999 columns, and 65814 nonzeros.
Reduced MIP has 7841 binaries, 0 generals, 0 SOSs, and 0 indicators.
Presolve time = 0.09 sec. (66.05 ticks)
Probing time = 0.05 sec. (15.76 ticks)
Clique table members: 6201.
MIP emphasis: balance optimality and feasibility.
MIP search method: dynamic search.
Parallel mode: opportunistic, using up to 32 threads.
Root relaxation solution time = 0.41 sec. (523.90 ticks)

        Nodes                                         Cuts/
   Node  Left     Objective  IInf  Best Integer    Best Bound    ItCnt     Gap

      0     0     3798.4879   719                   3798.4879     6713         
      0     0     3798.4879   563                  Cuts: 1016     7008         
      0     0     3798.4879   443                   Cuts: 624     7163         
      0     0     3798.4879   390                   Cuts: 510     7239         
      0     0     3792.9612   380                   Cuts: 367     7278         
      0     0     3792.9612   372                   Cuts: 166     7295         
      0     0     3792.9612   365                   Cuts: 128     7307         
      0     0     3792.9612   357                   Cuts: 124     7319         
      0     0     3792.9612   356                    Cuts: 91     7322         
      0     0     3792.9612   356                    Cuts: 85     7322         
Repair heuristic found nothing.
      0    29    infeasible                       Flowcuts: 3     7581         
Elapsed time = 10.44 sec. (6457.94 ticks, tree = 0.02 MB, solutions = 0)
    450   188     3702.5937   339                   3767.0795     8081         
   1307   332     3731.0830   331                   3767.0795     8220         
   2662   809      674.7654   303                   3767.0795     8922         
   4137  2076     3717.2597   286                   3767.0795    10272         
   5244  4960  -274910.8856   173                   3767.0795    17943         
   5916  5097  -125346.1280    97                   3767.0795    18783         
   6593  5527  -351814.2669   117                   3767.0795    23415         
   7316  5649   -10530.4660   309                   3767.0795    28834         
   8059  5998   -14174.9200   282                   3767.0795    37479         
* 10273  9068      integral     0  -146949.5041     3767.0795    61817  102.56%
Elapsed time = 27.69 sec. (9382.28 ticks, tree = 75.78 MB, solutions = 5)
  13584   219     3767.0795   237     3726.1545     3767.0795    69540    1.10%

Clique cuts applied:  27
Cover cuts applied:  7
Implied bound cuts applied:  155
Flow cuts applied:  400
Mixed integer rounding cuts applied:  816
Gomory fractional cuts applied:  201

Root node processing (before b&c):
  Real time             =    9.11 sec. (6447.70 ticks)
Parallel b&c, 32 threads:
  Real time             =   23.98 sec. (5782.19 ticks)
  Sync time (average)   =    1.73 sec.
  Wait time (average)   =    0.00 sec.
                          ------------
Total (root+branch&cut) =   33.09 sec. (12229.89 ticks)

Solution pool: 6 solutions saved.

MIP - Integer optimal, tolerance (0.01/1e-06):  Objective =  3.7261545129e+03
Current MIP best bound =  3.7603672110e+03 (gap = 34.2127, 0.92%)
Solution time =   33.11 sec.  Iterations = 76613  Nodes = 15534 (541)
Deterministic time = 12230.05 ticks  (369.38 ticks/sec)

CPLEX> Incumbent solution written to file 'C:\Users\llavin\Desktop\test919\logs\tmpsnyfiq00.cplex.sol'.
CPLEX> Exporting results... 
